NAME: tsp_473
COMMENT: Random TSP instance
TYPE: TSP
DIMENSION: 50
EDGE_WEIGHT_TYPE: EUC_2D
NODE_COORD_SECTION
1 53 609
2 750 397
3 638 818
4 601 291
5 424 783
6 419 234
7 611 210
8 29 879
9 531 737
10 260 822
11 384 766
12 452 148
13 250 217
14 851 640
15 976 69
16 444 396
17 919 109
18 944 148
19 609 391
20 883 253
21 351 181
22 157 109
23 216 907
24 144 211
25 557 194
26 520 236
27 901 860
28 494 841
29 165 456
30 108 317
31 519 630
32 559 319
33 229 457
34 507 677
35 431 24
36 331 288
37 46 1
38 189 56
39 675 497
40 617 174
41 590 530
42 494 227
43 133 605
44 843 406
45 284 110
46 526 944
47 937 640
48 43 956
49 600 186
50 919 858
